20	5
0	9	2	1	6	4	3	8	5	9	7
1	1	10
2	1	10
3	2	15	17
4	3	17	14	16
5	2	14	19
6	2	17	16
7	0
8	2	10	17
9	3	14	12	17
10	1	13
11	2	16	18
12	1	10
13	1	19
14	1	18
15	2	14	11
16	2	20	12
17	1	18
18	1	20
19	1	21
20	1	21
21	0
0	0	0	0	0	0	0
1	5	1	2	3	2	5
2	6	2	2	4	4	5
3	1	0	0	2	0	5
4	1	3	2	2	0	3
5	8	3	5	4	4	1
6	9	5	0	0	2	3
7	9	0	4	2	4	4
8	9	0	0	1	2	2
9	4	4	3	1	0	0
10	7	5	3	2	1	2
11	1	2	0	1	2	0
12	1	2	5	3	0	3
13	2	0	5	5	0	0
14	3	4	1	0	0	0
15	3	4	0	2	5	2
16	2	5	2	3	5	1
17	9	3	2	5	0	3
18	7	3	3	1	1	2
19	6	0	2	0	5	3
20	7	4	0	5	2	4
21	0	0	0	0	0	0
9	8	9	10	11
